p cnf 77 1101 

c chaque sommet si il est choisi on ne dois pas prendre ses adjaçent
c sommet 0 choisi :
-1 -2 0
-1 -4 0
-1 -7 0
-1 -9 0
c sommet 1 choisi :
-2 -1 0
-2 -3 0
-2 -6 0
-2 -8 0
c sommet 2 choisi :
-3 -2 0
-3 -5 0
-3 -7 0
-3 -10 0
c sommet 3 choisi :
-4 -1 0
-4 -5 0
-4 -6 0
-4 -10 0
c sommet 4 choisi :
-5 -3 0
-5 -4 0
-5 -8 0
-5 -9 0
c sommet 5 choisi :
-6 -2 0
-6 -4 0
-6 -11 0
c sommet 6 choisi :
-7 -1 0
-7 -3 0
-7 -11 0
c sommet 7 choisi :
-8 -2 0
-8 -5 0
-8 -11 0
c sommet 8 choisi :
-9 -1 0
-9 -5 0
-9 -11 0
c sommet 9 choisi :
-10 -3 0
-10 -4 0
-10 -11 0
c sommet 10 choisi :
-11 -6 0
-11 -7 0
-11 -8 0
-11 -9 0
-11 -10 0
c association des positions
c sommet 1 : une seule position 0
-12 1 0
-12 -13 0
-12 -14 0
-12 -15 0
-12 -16 0
-12 -17 0
c sommet 1 position 0 : pas d'autres sommets ayant cette position
-12 -18 0
-12 -24 0
-12 -30 0
-12 -36 0
-12 -42 0
-12 -48 0
-12 -54 0
-12 -60 0
-12 -66 0
-12 -72 0
c sommet 1 : une seule position 1
-13 1 0
-13 -12 0
-13 -14 0
-13 -15 0
-13 -16 0
-13 -17 0
c sommet 1 position 1 : pas d'autres sommets ayant cette position
-13 -19 0
-13 -25 0
-13 -31 0
-13 -37 0
-13 -43 0
-13 -49 0
-13 -55 0
-13 -61 0
-13 -67 0
-13 -73 0
c sommet 1 : une seule position 2
-14 1 0
-14 -12 0
-14 -13 0
-14 -15 0
-14 -16 0
-14 -17 0
c sommet 1 position 2 : pas d'autres sommets ayant cette position
-14 -20 0
-14 -26 0
-14 -32 0
-14 -38 0
-14 -44 0
-14 -50 0
-14 -56 0
-14 -62 0
-14 -68 0
-14 -74 0
c sommet 1 : une seule position 3
-15 1 0
-15 -12 0
-15 -13 0
-15 -14 0
-15 -16 0
-15 -17 0
c sommet 1 position 3 : pas d'autres sommets ayant cette position
-15 -21 0
-15 -27 0
-15 -33 0
-15 -39 0
-15 -45 0
-15 -51 0
-15 -57 0
-15 -63 0
-15 -69 0
-15 -75 0
c sommet 1 : une seule position 4
-16 1 0
-16 -12 0
-16 -13 0
-16 -14 0
-16 -15 0
-16 -17 0
c sommet 1 position 4 : pas d'autres sommets ayant cette position
-16 -22 0
-16 -28 0
-16 -34 0
-16 -40 0
-16 -46 0
-16 -52 0
-16 -58 0
-16 -64 0
-16 -70 0
-16 -76 0
c sommet 1 : une seule position 5
-17 1 0
-17 -12 0
-17 -13 0
-17 -14 0
-17 -15 0
-17 -16 0
c sommet 1 position 5 : pas d'autres sommets ayant cette position
-17 -23 0
-17 -29 0
-17 -35 0
-17 -41 0
-17 -47 0
-17 -53 0
-17 -59 0
-17 -65 0
-17 -71 0
-17 -77 0
c sommet 2 : une seule position 0
-18 2 0
-18 -19 0
-18 -20 0
-18 -21 0
-18 -22 0
-18 -23 0
c sommet 2 position 0 : pas d'autres sommets ayant cette position
-18 -12 0
-18 -24 0
-18 -30 0
-18 -36 0
-18 -42 0
-18 -48 0
-18 -54 0
-18 -60 0
-18 -66 0
-18 -72 0
c sommet 2 : une seule position 1
-19 2 0
-19 -18 0
-19 -20 0
-19 -21 0
-19 -22 0
-19 -23 0
c sommet 2 position 1 : pas d'autres sommets ayant cette position
-19 -13 0
-19 -25 0
-19 -31 0
-19 -37 0
-19 -43 0
-19 -49 0
-19 -55 0
-19 -61 0
-19 -67 0
-19 -73 0
c sommet 2 : une seule position 2
-20 2 0
-20 -18 0
-20 -19 0
-20 -21 0
-20 -22 0
-20 -23 0
c sommet 2 position 2 : pas d'autres sommets ayant cette position
-20 -14 0
-20 -26 0
-20 -32 0
-20 -38 0
-20 -44 0
-20 -50 0
-20 -56 0
-20 -62 0
-20 -68 0
-20 -74 0
c sommet 2 : une seule position 3
-21 2 0
-21 -18 0
-21 -19 0
-21 -20 0
-21 -22 0
-21 -23 0
c sommet 2 position 3 : pas d'autres sommets ayant cette position
-21 -15 0
-21 -27 0
-21 -33 0
-21 -39 0
-21 -45 0
-21 -51 0
-21 -57 0
-21 -63 0
-21 -69 0
-21 -75 0
c sommet 2 : une seule position 4
-22 2 0
-22 -18 0
-22 -19 0
-22 -20 0
-22 -21 0
-22 -23 0
c sommet 2 position 4 : pas d'autres sommets ayant cette position
-22 -16 0
-22 -28 0
-22 -34 0
-22 -40 0
-22 -46 0
-22 -52 0
-22 -58 0
-22 -64 0
-22 -70 0
-22 -76 0
c sommet 2 : une seule position 5
-23 2 0
-23 -18 0
-23 -19 0
-23 -20 0
-23 -21 0
-23 -22 0
c sommet 2 position 5 : pas d'autres sommets ayant cette position
-23 -17 0
-23 -29 0
-23 -35 0
-23 -41 0
-23 -47 0
-23 -53 0
-23 -59 0
-23 -65 0
-23 -71 0
-23 -77 0
c sommet 3 : une seule position 0
-24 3 0
-24 -25 0
-24 -26 0
-24 -27 0
-24 -28 0
-24 -29 0
c sommet 3 position 0 : pas d'autres sommets ayant cette position
-24 -12 0
-24 -18 0
-24 -30 0
-24 -36 0
-24 -42 0
-24 -48 0
-24 -54 0
-24 -60 0
-24 -66 0
-24 -72 0
c sommet 3 : une seule position 1
-25 3 0
-25 -24 0
-25 -26 0
-25 -27 0
-25 -28 0
-25 -29 0
c sommet 3 position 1 : pas d'autres sommets ayant cette position
-25 -13 0
-25 -19 0
-25 -31 0
-25 -37 0
-25 -43 0
-25 -49 0
-25 -55 0
-25 -61 0
-25 -67 0
-25 -73 0
c sommet 3 : une seule position 2
-26 3 0
-26 -24 0
-26 -25 0
-26 -27 0
-26 -28 0
-26 -29 0
c sommet 3 position 2 : pas d'autres sommets ayant cette position
-26 -14 0
-26 -20 0
-26 -32 0
-26 -38 0
-26 -44 0
-26 -50 0
-26 -56 0
-26 -62 0
-26 -68 0
-26 -74 0
c sommet 3 : une seule position 3
-27 3 0
-27 -24 0
-27 -25 0
-27 -26 0
-27 -28 0
-27 -29 0
c sommet 3 position 3 : pas d'autres sommets ayant cette position
-27 -15 0
-27 -21 0
-27 -33 0
-27 -39 0
-27 -45 0
-27 -51 0
-27 -57 0
-27 -63 0
-27 -69 0
-27 -75 0
c sommet 3 : une seule position 4
-28 3 0
-28 -24 0
-28 -25 0
-28 -26 0
-28 -27 0
-28 -29 0
c sommet 3 position 4 : pas d'autres sommets ayant cette position
-28 -16 0
-28 -22 0
-28 -34 0
-28 -40 0
-28 -46 0
-28 -52 0
-28 -58 0
-28 -64 0
-28 -70 0
-28 -76 0
c sommet 3 : une seule position 5
-29 3 0
-29 -24 0
-29 -25 0
-29 -26 0
-29 -27 0
-29 -28 0
c sommet 3 position 5 : pas d'autres sommets ayant cette position
-29 -17 0
-29 -23 0
-29 -35 0
-29 -41 0
-29 -47 0
-29 -53 0
-29 -59 0
-29 -65 0
-29 -71 0
-29 -77 0
c sommet 4 : une seule position 0
-30 4 0
-30 -31 0
-30 -32 0
-30 -33 0
-30 -34 0
-30 -35 0
c sommet 4 position 0 : pas d'autres sommets ayant cette position
-30 -12 0
-30 -18 0
-30 -24 0
-30 -36 0
-30 -42 0
-30 -48 0
-30 -54 0
-30 -60 0
-30 -66 0
-30 -72 0
c sommet 4 : une seule position 1
-31 4 0
-31 -30 0
-31 -32 0
-31 -33 0
-31 -34 0
-31 -35 0
c sommet 4 position 1 : pas d'autres sommets ayant cette position
-31 -13 0
-31 -19 0
-31 -25 0
-31 -37 0
-31 -43 0
-31 -49 0
-31 -55 0
-31 -61 0
-31 -67 0
-31 -73 0
c sommet 4 : une seule position 2
-32 4 0
-32 -30 0
-32 -31 0
-32 -33 0
-32 -34 0
-32 -35 0
c sommet 4 position 2 : pas d'autres sommets ayant cette position
-32 -14 0
-32 -20 0
-32 -26 0
-32 -38 0
-32 -44 0
-32 -50 0
-32 -56 0
-32 -62 0
-32 -68 0
-32 -74 0
c sommet 4 : une seule position 3
-33 4 0
-33 -30 0
-33 -31 0
-33 -32 0
-33 -34 0
-33 -35 0
c sommet 4 position 3 : pas d'autres sommets ayant cette position
-33 -15 0
-33 -21 0
-33 -27 0
-33 -39 0
-33 -45 0
-33 -51 0
-33 -57 0
-33 -63 0
-33 -69 0
-33 -75 0
c sommet 4 : une seule position 4
-34 4 0
-34 -30 0
-34 -31 0
-34 -32 0
-34 -33 0
-34 -35 0
c sommet 4 position 4 : pas d'autres sommets ayant cette position
-34 -16 0
-34 -22 0
-34 -28 0
-34 -40 0
-34 -46 0
-34 -52 0
-34 -58 0
-34 -64 0
-34 -70 0
-34 -76 0
c sommet 4 : une seule position 5
-35 4 0
-35 -30 0
-35 -31 0
-35 -32 0
-35 -33 0
-35 -34 0
c sommet 4 position 5 : pas d'autres sommets ayant cette position
-35 -17 0
-35 -23 0
-35 -29 0
-35 -41 0
-35 -47 0
-35 -53 0
-35 -59 0
-35 -65 0
-35 -71 0
-35 -77 0
c sommet 5 : une seule position 0
-36 5 0
-36 -37 0
-36 -38 0
-36 -39 0
-36 -40 0
-36 -41 0
c sommet 5 position 0 : pas d'autres sommets ayant cette position
-36 -12 0
-36 -18 0
-36 -24 0
-36 -30 0
-36 -42 0
-36 -48 0
-36 -54 0
-36 -60 0
-36 -66 0
-36 -72 0
c sommet 5 : une seule position 1
-37 5 0
-37 -36 0
-37 -38 0
-37 -39 0
-37 -40 0
-37 -41 0
c sommet 5 position 1 : pas d'autres sommets ayant cette position
-37 -13 0
-37 -19 0
-37 -25 0
-37 -31 0
-37 -43 0
-37 -49 0
-37 -55 0
-37 -61 0
-37 -67 0
-37 -73 0
c sommet 5 : une seule position 2
-38 5 0
-38 -36 0
-38 -37 0
-38 -39 0
-38 -40 0
-38 -41 0
c sommet 5 position 2 : pas d'autres sommets ayant cette position
-38 -14 0
-38 -20 0
-38 -26 0
-38 -32 0
-38 -44 0
-38 -50 0
-38 -56 0
-38 -62 0
-38 -68 0
-38 -74 0
c sommet 5 : une seule position 3
-39 5 0
-39 -36 0
-39 -37 0
-39 -38 0
-39 -40 0
-39 -41 0
c sommet 5 position 3 : pas d'autres sommets ayant cette position
-39 -15 0
-39 -21 0
-39 -27 0
-39 -33 0
-39 -45 0
-39 -51 0
-39 -57 0
-39 -63 0
-39 -69 0
-39 -75 0
c sommet 5 : une seule position 4
-40 5 0
-40 -36 0
-40 -37 0
-40 -38 0
-40 -39 0
-40 -41 0
c sommet 5 position 4 : pas d'autres sommets ayant cette position
-40 -16 0
-40 -22 0
-40 -28 0
-40 -34 0
-40 -46 0
-40 -52 0
-40 -58 0
-40 -64 0
-40 -70 0
-40 -76 0
c sommet 5 : une seule position 5
-41 5 0
-41 -36 0
-41 -37 0
-41 -38 0
-41 -39 0
-41 -40 0
c sommet 5 position 5 : pas d'autres sommets ayant cette position
-41 -17 0
-41 -23 0
-41 -29 0
-41 -35 0
-41 -47 0
-41 -53 0
-41 -59 0
-41 -65 0
-41 -71 0
-41 -77 0
c sommet 6 : une seule position 0
-42 6 0
-42 -43 0
-42 -44 0
-42 -45 0
-42 -46 0
-42 -47 0
c sommet 6 position 0 : pas d'autres sommets ayant cette position
-42 -12 0
-42 -18 0
-42 -24 0
-42 -30 0
-42 -36 0
-42 -48 0
-42 -54 0
-42 -60 0
-42 -66 0
-42 -72 0
c sommet 6 : une seule position 1
-43 6 0
-43 -42 0
-43 -44 0
-43 -45 0
-43 -46 0
-43 -47 0
c sommet 6 position 1 : pas d'autres sommets ayant cette position
-43 -13 0
-43 -19 0
-43 -25 0
-43 -31 0
-43 -37 0
-43 -49 0
-43 -55 0
-43 -61 0
-43 -67 0
-43 -73 0
c sommet 6 : une seule position 2
-44 6 0
-44 -42 0
-44 -43 0
-44 -45 0
-44 -46 0
-44 -47 0
c sommet 6 position 2 : pas d'autres sommets ayant cette position
-44 -14 0
-44 -20 0
-44 -26 0
-44 -32 0
-44 -38 0
-44 -50 0
-44 -56 0
-44 -62 0
-44 -68 0
-44 -74 0
c sommet 6 : une seule position 3
-45 6 0
-45 -42 0
-45 -43 0
-45 -44 0
-45 -46 0
-45 -47 0
c sommet 6 position 3 : pas d'autres sommets ayant cette position
-45 -15 0
-45 -21 0
-45 -27 0
-45 -33 0
-45 -39 0
-45 -51 0
-45 -57 0
-45 -63 0
-45 -69 0
-45 -75 0
c sommet 6 : une seule position 4
-46 6 0
-46 -42 0
-46 -43 0
-46 -44 0
-46 -45 0
-46 -47 0
c sommet 6 position 4 : pas d'autres sommets ayant cette position
-46 -16 0
-46 -22 0
-46 -28 0
-46 -34 0
-46 -40 0
-46 -52 0
-46 -58 0
-46 -64 0
-46 -70 0
-46 -76 0
c sommet 6 : une seule position 5
-47 6 0
-47 -42 0
-47 -43 0
-47 -44 0
-47 -45 0
-47 -46 0
c sommet 6 position 5 : pas d'autres sommets ayant cette position
-47 -17 0
-47 -23 0
-47 -29 0
-47 -35 0
-47 -41 0
-47 -53 0
-47 -59 0
-47 -65 0
-47 -71 0
-47 -77 0
c sommet 7 : une seule position 0
-48 7 0
-48 -49 0
-48 -50 0
-48 -51 0
-48 -52 0
-48 -53 0
c sommet 7 position 0 : pas d'autres sommets ayant cette position
-48 -12 0
-48 -18 0
-48 -24 0
-48 -30 0
-48 -36 0
-48 -42 0
-48 -54 0
-48 -60 0
-48 -66 0
-48 -72 0
c sommet 7 : une seule position 1
-49 7 0
-49 -48 0
-49 -50 0
-49 -51 0
-49 -52 0
-49 -53 0
c sommet 7 position 1 : pas d'autres sommets ayant cette position
-49 -13 0
-49 -19 0
-49 -25 0
-49 -31 0
-49 -37 0
-49 -43 0
-49 -55 0
-49 -61 0
-49 -67 0
-49 -73 0
c sommet 7 : une seule position 2
-50 7 0
-50 -48 0
-50 -49 0
-50 -51 0
-50 -52 0
-50 -53 0
c sommet 7 position 2 : pas d'autres sommets ayant cette position
-50 -14 0
-50 -20 0
-50 -26 0
-50 -32 0
-50 -38 0
-50 -44 0
-50 -56 0
-50 -62 0
-50 -68 0
-50 -74 0
c sommet 7 : une seule position 3
-51 7 0
-51 -48 0
-51 -49 0
-51 -50 0
-51 -52 0
-51 -53 0
c sommet 7 position 3 : pas d'autres sommets ayant cette position
-51 -15 0
-51 -21 0
-51 -27 0
-51 -33 0
-51 -39 0
-51 -45 0
-51 -57 0
-51 -63 0
-51 -69 0
-51 -75 0
c sommet 7 : une seule position 4
-52 7 0
-52 -48 0
-52 -49 0
-52 -50 0
-52 -51 0
-52 -53 0
c sommet 7 position 4 : pas d'autres sommets ayant cette position
-52 -16 0
-52 -22 0
-52 -28 0
-52 -34 0
-52 -40 0
-52 -46 0
-52 -58 0
-52 -64 0
-52 -70 0
-52 -76 0
c sommet 7 : une seule position 5
-53 7 0
-53 -48 0
-53 -49 0
-53 -50 0
-53 -51 0
-53 -52 0
c sommet 7 position 5 : pas d'autres sommets ayant cette position
-53 -17 0
-53 -23 0
-53 -29 0
-53 -35 0
-53 -41 0
-53 -47 0
-53 -59 0
-53 -65 0
-53 -71 0
-53 -77 0
c sommet 8 : une seule position 0
-54 8 0
-54 -55 0
-54 -56 0
-54 -57 0
-54 -58 0
-54 -59 0
c sommet 8 position 0 : pas d'autres sommets ayant cette position
-54 -12 0
-54 -18 0
-54 -24 0
-54 -30 0
-54 -36 0
-54 -42 0
-54 -48 0
-54 -60 0
-54 -66 0
-54 -72 0
c sommet 8 : une seule position 1
-55 8 0
-55 -54 0
-55 -56 0
-55 -57 0
-55 -58 0
-55 -59 0
c sommet 8 position 1 : pas d'autres sommets ayant cette position
-55 -13 0
-55 -19 0
-55 -25 0
-55 -31 0
-55 -37 0
-55 -43 0
-55 -49 0
-55 -61 0
-55 -67 0
-55 -73 0
c sommet 8 : une seule position 2
-56 8 0
-56 -54 0
-56 -55 0
-56 -57 0
-56 -58 0
-56 -59 0
c sommet 8 position 2 : pas d'autres sommets ayant cette position
-56 -14 0
-56 -20 0
-56 -26 0
-56 -32 0
-56 -38 0
-56 -44 0
-56 -50 0
-56 -62 0
-56 -68 0
-56 -74 0
c sommet 8 : une seule position 3
-57 8 0
-57 -54 0
-57 -55 0
-57 -56 0
-57 -58 0
-57 -59 0
c sommet 8 position 3 : pas d'autres sommets ayant cette position
-57 -15 0
-57 -21 0
-57 -27 0
-57 -33 0
-57 -39 0
-57 -45 0
-57 -51 0
-57 -63 0
-57 -69 0
-57 -75 0
c sommet 8 : une seule position 4
-58 8 0
-58 -54 0
-58 -55 0
-58 -56 0
-58 -57 0
-58 -59 0
c sommet 8 position 4 : pas d'autres sommets ayant cette position
-58 -16 0
-58 -22 0
-58 -28 0
-58 -34 0
-58 -40 0
-58 -46 0
-58 -52 0
-58 -64 0
-58 -70 0
-58 -76 0
c sommet 8 : une seule position 5
-59 8 0
-59 -54 0
-59 -55 0
-59 -56 0
-59 -57 0
-59 -58 0
c sommet 8 position 5 : pas d'autres sommets ayant cette position
-59 -17 0
-59 -23 0
-59 -29 0
-59 -35 0
-59 -41 0
-59 -47 0
-59 -53 0
-59 -65 0
-59 -71 0
-59 -77 0
c sommet 9 : une seule position 0
-60 9 0
-60 -61 0
-60 -62 0
-60 -63 0
-60 -64 0
-60 -65 0
c sommet 9 position 0 : pas d'autres sommets ayant cette position
-60 -12 0
-60 -18 0
-60 -24 0
-60 -30 0
-60 -36 0
-60 -42 0
-60 -48 0
-60 -54 0
-60 -66 0
-60 -72 0
c sommet 9 : une seule position 1
-61 9 0
-61 -60 0
-61 -62 0
-61 -63 0
-61 -64 0
-61 -65 0
c sommet 9 position 1 : pas d'autres sommets ayant cette position
-61 -13 0
-61 -19 0
-61 -25 0
-61 -31 0
-61 -37 0
-61 -43 0
-61 -49 0
-61 -55 0
-61 -67 0
-61 -73 0
c sommet 9 : une seule position 2
-62 9 0
-62 -60 0
-62 -61 0
-62 -63 0
-62 -64 0
-62 -65 0
c sommet 9 position 2 : pas d'autres sommets ayant cette position
-62 -14 0
-62 -20 0
-62 -26 0
-62 -32 0
-62 -38 0
-62 -44 0
-62 -50 0
-62 -56 0
-62 -68 0
-62 -74 0
c sommet 9 : une seule position 3
-63 9 0
-63 -60 0
-63 -61 0
-63 -62 0
-63 -64 0
-63 -65 0
c sommet 9 position 3 : pas d'autres sommets ayant cette position
-63 -15 0
-63 -21 0
-63 -27 0
-63 -33 0
-63 -39 0
-63 -45 0
-63 -51 0
-63 -57 0
-63 -69 0
-63 -75 0
c sommet 9 : une seule position 4
-64 9 0
-64 -60 0
-64 -61 0
-64 -62 0
-64 -63 0
-64 -65 0
c sommet 9 position 4 : pas d'autres sommets ayant cette position
-64 -16 0
-64 -22 0
-64 -28 0
-64 -34 0
-64 -40 0
-64 -46 0
-64 -52 0
-64 -58 0
-64 -70 0
-64 -76 0
c sommet 9 : une seule position 5
-65 9 0
-65 -60 0
-65 -61 0
-65 -62 0
-65 -63 0
-65 -64 0
c sommet 9 position 5 : pas d'autres sommets ayant cette position
-65 -17 0
-65 -23 0
-65 -29 0
-65 -35 0
-65 -41 0
-65 -47 0
-65 -53 0
-65 -59 0
-65 -71 0
-65 -77 0
c sommet 10 : une seule position 0
-66 10 0
-66 -67 0
-66 -68 0
-66 -69 0
-66 -70 0
-66 -71 0
c sommet 10 position 0 : pas d'autres sommets ayant cette position
-66 -12 0
-66 -18 0
-66 -24 0
-66 -30 0
-66 -36 0
-66 -42 0
-66 -48 0
-66 -54 0
-66 -60 0
-66 -72 0
c sommet 10 : une seule position 1
-67 10 0
-67 -66 0
-67 -68 0
-67 -69 0
-67 -70 0
-67 -71 0
c sommet 10 position 1 : pas d'autres sommets ayant cette position
-67 -13 0
-67 -19 0
-67 -25 0
-67 -31 0
-67 -37 0
-67 -43 0
-67 -49 0
-67 -55 0
-67 -61 0
-67 -73 0
c sommet 10 : une seule position 2
-68 10 0
-68 -66 0
-68 -67 0
-68 -69 0
-68 -70 0
-68 -71 0
c sommet 10 position 2 : pas d'autres sommets ayant cette position
-68 -14 0
-68 -20 0
-68 -26 0
-68 -32 0
-68 -38 0
-68 -44 0
-68 -50 0
-68 -56 0
-68 -62 0
-68 -74 0
c sommet 10 : une seule position 3
-69 10 0
-69 -66 0
-69 -67 0
-69 -68 0
-69 -70 0
-69 -71 0
c sommet 10 position 3 : pas d'autres sommets ayant cette position
-69 -15 0
-69 -21 0
-69 -27 0
-69 -33 0
-69 -39 0
-69 -45 0
-69 -51 0
-69 -57 0
-69 -63 0
-69 -75 0
c sommet 10 : une seule position 4
-70 10 0
-70 -66 0
-70 -67 0
-70 -68 0
-70 -69 0
-70 -71 0
c sommet 10 position 4 : pas d'autres sommets ayant cette position
-70 -16 0
-70 -22 0
-70 -28 0
-70 -34 0
-70 -40 0
-70 -46 0
-70 -52 0
-70 -58 0
-70 -64 0
-70 -76 0
c sommet 10 : une seule position 5
-71 10 0
-71 -66 0
-71 -67 0
-71 -68 0
-71 -69 0
-71 -70 0
c sommet 10 position 5 : pas d'autres sommets ayant cette position
-71 -17 0
-71 -23 0
-71 -29 0
-71 -35 0
-71 -41 0
-71 -47 0
-71 -53 0
-71 -59 0
-71 -65 0
-71 -77 0
c sommet 11 : une seule position 0
-72 11 0
-72 -73 0
-72 -74 0
-72 -75 0
-72 -76 0
-72 -77 0
c sommet 11 position 0 : pas d'autres sommets ayant cette position
-72 -12 0
-72 -18 0
-72 -24 0
-72 -30 0
-72 -36 0
-72 -42 0
-72 -48 0
-72 -54 0
-72 -60 0
-72 -66 0
c sommet 11 : une seule position 1
-73 11 0
-73 -72 0
-73 -74 0
-73 -75 0
-73 -76 0
-73 -77 0
c sommet 11 position 1 : pas d'autres sommets ayant cette position
-73 -13 0
-73 -19 0
-73 -25 0
-73 -31 0
-73 -37 0
-73 -43 0
-73 -49 0
-73 -55 0
-73 -61 0
-73 -67 0
c sommet 11 : une seule position 2
-74 11 0
-74 -72 0
-74 -73 0
-74 -75 0
-74 -76 0
-74 -77 0
c sommet 11 position 2 : pas d'autres sommets ayant cette position
-74 -14 0
-74 -20 0
-74 -26 0
-74 -32 0
-74 -38 0
-74 -44 0
-74 -50 0
-74 -56 0
-74 -62 0
-74 -68 0
c sommet 11 : une seule position 3
-75 11 0
-75 -72 0
-75 -73 0
-75 -74 0
-75 -76 0
-75 -77 0
c sommet 11 position 3 : pas d'autres sommets ayant cette position
-75 -15 0
-75 -21 0
-75 -27 0
-75 -33 0
-75 -39 0
-75 -45 0
-75 -51 0
-75 -57 0
-75 -63 0
-75 -69 0
c sommet 11 : une seule position 4
-76 11 0
-76 -72 0
-76 -73 0
-76 -74 0
-76 -75 0
-76 -77 0
c sommet 11 position 4 : pas d'autres sommets ayant cette position
-76 -16 0
-76 -22 0
-76 -28 0
-76 -34 0
-76 -40 0
-76 -46 0
-76 -52 0
-76 -58 0
-76 -64 0
-76 -70 0
c sommet 11 : une seule position 5
-77 11 0
-77 -72 0
-77 -73 0
-77 -74 0
-77 -75 0
-77 -76 0
c sommet 11 position 5 : pas d'autres sommets ayant cette position
-77 -17 0
-77 -23 0
-77 -29 0
-77 -35 0
-77 -41 0
-77 -47 0
-77 -53 0
-77 -59 0
-77 -65 0
-77 -71 0
c clauses d'obligations d'attributions des positions
13 19 25 31 37 43 49 55 61 67 73 0
14 20 26 32 38 44 50 56 62 68 74 0
15 21 27 33 39 45 51 57 63 69 75 0
16 22 28 34 40 46 52 58 64 70 76 0
17 23 29 35 41 47 53 59 65 71 77 0
